--- Job ShortestPathA.gms Start 04/25/20 00:34:21 30.3.0 rc5da09e WEX-WEI x86 64bit/MS Windows
--- GAMS Parameters defined
    Input C:\aguadix\GITHUB\SOC\1 Linear programming (LP)\5 ShortestPath\ShortestPathA\ShortestPathA.gms
    PageSize 0
    ScrDir C:\aguadix\GITHUB\SOC\1 Linear programming (LP)\5 ShortestPath\ShortestPathA\225a\
    SysDir C:\GAMS\win64\30.3\
    LogOption 3
    ErrMsg 1
    ErrorLog 99
    IDE 1
    LstTitleLeftAligned 1
GAMS 30.3.0   Copyright (C) 1987-2020 GAMS Development. All rights reserved
Licensee: GAMS Demo license for ANTONIO MARIA GUADIX ESCOG200420|0002CO-GEN
          UNIVERSITY OF GRANADA, Spain                             DL007289
          aguadix@ugr.es, ANTONIO MARIA GUADIX ESCOBAR                     
          Demo license for demonstration and instructional purposes only
--- Starting compilation
--- ShortestPathA.gms(31) 2 Mb
--- Starting execution: elapsed 0:00:00.016
--- Generating LP model ShortestPathA
--- ShortestPathA.gms(31) 3 Mb
---   6 rows  7 columns  20 non-zeroes
--- Executing CPLEX: elapsed 0:00:00.278

IBM ILOG CPLEX   30.3.0 rc5da09e Released Mar 06, 2020 WEI x86 64bit/MS Window
*** This solver runs with a demo license. No commercial use.
Cplex 12.10.0.0

Reading data...
Starting Cplex...
Space for names approximately 0.00 Mb
Use option 'names no' to turn use of names off
Version identifier: 12.10.0.0 | 2019-11-26 | 843d4de2ae
CPXPARAM_Advance                                 0
CPXPARAM_Simplex_Display                         2
CPXPARAM_Threads                                 1
CPXPARAM_Parallel                                1
CPXPARAM_Simplex_Limits_Iterations               2000000000
CPXPARAM_TimeLimit                               1000
CPXPARAM_Tune_TimeLimit                          200
Tried aggregator 1 time.
LP Presolve eliminated 3 rows and 4 columns.
Aggregator did 3 substitutions.
All rows and columns eliminated.
Presolve time = 0.00 sec. (0.00 ticks)
LP status(1): optimal
Cplex Time: 0.06sec (det. 0.01 ticks)

Optimal solution found.
Objective :          95.000000

--- Restarting execution
--- ShortestPathA.gms(31) 2 Mb
--- Reading solution for model ShortestPathA
*** Status: Normal completion
--- Job ShortestPathA.gms Stop 04/25/20 00:34:23 elapsed 0:00:01.544
